
Gurobi 10.0.1 (linux64) logging started Sun Nov 26 15:37:31 2023

Set parameter LogFile to value "ArtificialInstance/ExperimentV2/S4T5K2/BaSp/gurobi1.txt"
Gurobi Optimizer version 10.0.1 build v10.0.1rc0 (linux64)

CPU model: AMD EPYC 7H12 64-Core Processor, instruction set [SSE2|AVX|AVX2]
Thread count: 128 physical cores, 128 logical processors, using up to 32 threads

Academic license 656792 - for non-commercial use only - registered to b.___@student.vu.nl
Optimize a model with 4520 rows, 6800 columns and 23040 nonzeros
Model fingerprint: 0x6d1aae7a
Variable types: 0 continuous, 6800 integer (6800 binary)
Coefficient statistics:
  Matrix range     [1e+00, 1e+00]
  Objective range  [9e-01, 2e+01]
  Bounds range     [1e+00, 1e+00]
  RHS range        [1e+00, 1e+00]
Found heuristic solution: objective 641.0328958
Presolve time: 0.03s
Presolved: 4520 rows, 6800 columns, 23040 nonzeros
Variable types: 0 continuous, 6800 integer (6800 binary)

Root relaxation: objective 4.707257e+01, 3496 iterations, 0.11 seconds (0.10 work units)

    Nodes    |    Current Node    |     Objective Bounds      |     Work
 Expl Unexpl |  Obj  Depth IntInf | Incumbent    BestBd   Gap | It/Node Time

     0     0   47.07257    0  798  641.03290   47.07257  92.7%     -    0s
H    0     0                     351.5614905   47.07257  86.6%     -    0s
H    0     0                      89.7851342   47.07257  47.6%     -    0s
     0     0   51.99618    0  686   89.78513   51.99618  42.1%     -    0s
H    0     0                      83.9084939   51.99618  38.0%     -    0s
H    0     0                      77.5513638   54.81103  29.3%     -    0s
     0     0   54.81103    0 1056   77.55136   54.81103  29.3%     -    0s
     0     0   54.81103    0 1054   77.55136   54.81103  29.3%     -    0s
H    0     0                      74.7229285   57.27261  23.4%     -    1s
     0     0   57.27261    0 1322   74.72293   57.27261  23.4%     -    1s
     0     0   57.27832    0 1355   74.72293   57.27832  23.3%     -    1s
     0     0   57.27873    0 1350   74.72293   57.27873  23.3%     -    1s
     0     0   59.11747    0 1198   74.72293   59.11747  20.9%     -    1s
     0     0   59.28054    0 1275   74.72293   59.28054  20.7%     -    1s
     0     0   59.29496    0 1274   74.72293   59.29496  20.6%     -    1s
     0     0   59.29629    0 1280   74.72293   59.29629  20.6%     -    1s
H    0     0                      66.1669847   59.68510  9.80%     -    2s
     0     0   59.68510    0 1368   66.16698   59.68510  9.80%     -    2s
     0     0   59.83374    0 1397   66.16698   59.83374  9.57%     -    2s
     0     0   59.83693    0 1381   66.16698   59.83693  9.57%     -    2s
     0     0   60.44370    0 1361   66.16698   60.44370  8.65%     -    2s
     0     0   60.47806    0 1336   66.16698   60.47806  8.60%     -    2s
     0     0   60.48307    0 1396   66.16698   60.48307  8.59%     -    2s
     0     0   60.48307    0 1396   66.16698   60.48307  8.59%     -    2s
     0     0   60.64971    0 1276   66.16698   60.64971  8.34%     -    2s
     0     0   60.70669    0 1331   66.16698   60.70669  8.25%     -    2s
     0     0   60.71147    0 1333   66.16698   60.71147  8.25%     -    2s
     0     0   60.71147    0 1342   66.16698   60.71147  8.25%     -    2s
     0     0   60.81107    0 1332   66.16698   60.81107  8.09%     -    3s
     0     0   60.83415    0 1485   66.16698   60.83415  8.06%     -    3s
     0     0   60.83694    0 1498   66.16698   60.83694  8.06%     -    3s
     0     0   60.87263    0 1416   66.16698   60.87263  8.00%     -    3s
     0     0   60.87844    0 1433   66.16698   60.87844  7.99%     -    3s
     0     0   60.87869    0 1435   66.16698   60.87869  7.99%     -    3s
     0     0   60.88479    0 1459   66.16698   60.88479  7.98%     -    3s
     0     0   60.89078    0 1463   66.16698   60.89078  7.97%     -    3s
     0     0   60.89954    0 1460   66.16698   60.89954  7.96%     -    3s
     0     0   60.90002    0 1463   66.16698   60.90002  7.96%     -    3s
     0     0   60.90645    0 1490   66.16698   60.90645  7.95%     -    3s
     0     0   60.90645    0 1407   66.16698   60.90645  7.95%     -    3s
     0     2   60.90645    0 1407   66.16698   60.90645  7.95%     -    4s
     1     4   60.99762    1 1382   66.16698   60.90990  7.95%  1982    5s

Cutting planes:
  Gomory: 12
  MIR: 1
  Zero half: 111
  RLT: 199

Explored 108 nodes (61430 simplex iterations) in 6.66 seconds (5.35 work units)
Thread count was 32 (of 128 available processors)

Solution count 7: 66.167 74.7229 77.5514 ... 641.033

Optimal solution found (tolerance 1.00e-04)
Best objective 6.616698473692e+01, best bound 6.616698473692e+01, gap 0.0000%
